17
1 0 36
2 0 37
2 1 4
3 0 59
3 1 41
3 2 47
4 0 62
4 1 20
4 2 34
4 3 22
5 0 43
5 1 45
5 2 38
5 3 50
5 4 37
6 0 12
6 1 46
6 2 9
6 3 33
6 4 60
6 5 28
7 0 4
7 1 1
7 2 2
7 3 46
7 4 6
7 5 39
7 6 60
8 0 52
8 1 48
8 2 52
8 3 47
8 4 40
8 5 14
8 6 19
8 7 16
9 0 44
9 1 23
9 2 20
9 3 30
9 4 50
9 5 32
9 6 51
9 7 57
9 8 37
10 0 28
10 1 38
10 2 41
10 3 57
10 4 52
10 5 14
10 6 52
10 7 37
10 8 56
10 9 44
11 0 42
11 1 60
11 2 26
11 3 29
11 4 31
11 5 25
11 6 44
11 7 37
11 8 1
11 9 34
11 10 6
12 0 46
12 1 59
12 2 2
12 3 55
12 4 6
12 5 58
12 6 59
12 7 4
12 8 2
12 9 6
12 10 27
12 11 4
13 0 62
13 1 47
13 2 44
13 3 29
13 4 58
13 5 12
13 6 62
13 7 19
13 8 56
13 9 31
13 10 54
13 11 31
13 12 33
14 0 49
14 1 54
14 2 32
14 3 15
14 4 23
14 5 44
14 6 17
14 7 48
14 8 45
14 9 6
14 10 62
14 11 3
14 12 23
14 13 17
15 0 17
15 1 48
15 2 44
15 3 42
15 4 50
15 5 60
15 6 54
15 7 14
15 8 32
15 9 38
15 10 52
15 11 22
15 12 61
15 13 59
15 14 23
16 0 36
16 1 18
16 2 6
16 3 46
16 4 26
16 5 51
16 6 12
16 7 3
16 8 49
16 9 46
16 10 62
16 11 45
16 12 13
16 13 59
16 14 52
16 15 36
